p cnf 142 499
3 1 0
3 2 0
-1 -2 -3 0
-6 -4 0
-6 5 0
4 -5 6 0
9 8 0
9 2 0
-8 -2 -9 0
-10 -7 0
-10 9 0
7 -9 10 0
11 6 0
11 -10 0
-6 10 -11 0
-13 -8 0
-13 -12 0
8 12 13 0
15 13 0
15 -14 0
-13 14 -15 0
-17 -16 0
-17 7 0
16 -7 17 0
18 10 0
18 17 0
-10 -17 -18 0
19 18 0
19 -5 0
-18 5 -19 0
15 -19 -20 0
-15 19 -20 0
15 19 20 0
-15 -19 20 0
-21 11 0
-21 20 0
-11 -20 21 0
13 -9 -22 0
-13 9 -22 0
13 9 22 0
-13 -9 22 0
-23 -4 0
-23 22 0
4 -22 23 0
-24 23 0
-24 -17 0
-23 17 24 0
2 23 -25 0
-2 -23 -25 0
2 -23 25 0
-2 23 25 0
26 -24 0
26 25 0
24 -25 -26 0
27 8 0
27 14 0
-8 -14 -27 0
26 -27 -28 0
-26 27 -28 0
26 27 28 0
-26 -27 28 0
29 21 0
29 -28 0
-21 28 -29 0
3 29 -30 0
-3 -29 -30 0
3 -29 30 0
-3 29 30 0
-1 15 -31 0
1 -15 -31 0
-1 -15 31 0
1 15 31 0
4 5 -32 0
-4 -5 -32 0
4 -5 32 0
-4 5 32 0
33 12 0
33 32 0
-12 -32 -33 0
35 -33 0
35 34 0
33 -34 -35 0
-35 -18 -36 0
35 18 -36 0
-35 18 36 0
35 -18 36 0
-37 36 0
-37 -13 0
-36 13 37 0
12 -1 -38 0
-12 1 -38 0
12 1 38 0
-12 -1 38 0
-39 1 0
-39 38 0
-1 -38 39 0
-40 -37 0
-40 -39 0
37 39 40 0
-41 -16 0
-41 1 0
16 -1 41 0
42 34 0
42 -41 0
-34 41 -42 0
-40 -42 -43 0
40 42 -43 0
-40 42 43 0
40 -42 43 0
44 -4 0
44 -18 0
4 18 -44 0
45 -44 0
45 14 0
44 -14 -45 0
-46 -43 0
-46 45 0
43 -45 46 0
-47 -31 0
-47 -46 0
31 46 47 0
-48 49 0
48 49 0
-50 49 0
-50 40 0
-49 -40 50 0
52 -18 0
52 1 0
18 -1 -52 0
53 22 0
53 -52 0
-22 52 -53 0
54 51 0
54 53 0
-51 -53 -54 0
-55 50 0
-55 54 0
-50 -54 55 0
56 -53 0
56 42 0
53 -42 -56 0
57 -55 0
57 -56 0
55 56 -57 0
-58 32 0
-58 4 0
-32 -4 58 0
-59 -58 0
-59 36 0
58 -36 59 0
-60 -22 0
-60 18 0
22 -18 60 0
61 -60 0
61 -15 0
60 15 -61 0
62 4 0
62 36 0
-4 -36 -62 0
63 61 0
63 -62 0
-61 62 -63 0
-64 -41 0
-64 44 0
41 -44 64 0
-65 -64 0
-65 62 0
64 -62 65 0
66 63 0
66 65 0
-63 -65 -66 0
-67 4 0
-67 42 0
-4 -42 67 0
68 -66 0
68 67 0
66 -67 -68 0
69 -59 0
69 68 0
59 -68 -69 0
70 -57 0
70 -69 0
57 69 -70 0
2 -34 -71 0
-2 34 -71 0
2 34 71 0
-2 -34 71 0
72 -16 0
72 11 0
16 -11 -72 0
72 -53 -73 0
-72 53 -73 0
72 53 73 0
-72 -53 73 0
-74 -71 0
-74 73 0
71 -73 74 0
75 -4 0
75 8 0
4 -8 -75 0
76 75 0
76 38 0
-75 -38 -76 0
-77 27 0
-77 -11 0
-27 11 77 0
-78 38 0
-78 77 0
-38 -77 78 0
38 -35 -79 0
-38 35 -79 0
38 35 79 0
-38 -35 79 0
-79 19 -80 0
79 -19 -80 0
-79 -19 80 0
79 19 80 0
81 14 0
81 12 0
-14 -12 -81 0
-82 81 0
-82 -11 0
-81 11 82 0
82 35 -83 0
-82 -35 -83 0
82 -35 83 0
-82 35 83 0
-84 80 0
-84 83 0
-80 -83 84 0
85 -78 0
85 84 0
78 -84 -85 0
-86 76 0
-86 -85 0
-76 85 86 0
87 -74 0
87 86 0
74 -86 -87 0
88 61 0
88 -60 0
-61 60 -88 0
-89 -88 0
-89 -60 0
88 60 89 0
-19 89 -90 0
19 -89 -90 0
-19 -89 90 0
19 89 90 0
87 90 -91 0
-87 -90 -91 0
87 -90 91 0
-87 90 91 0
93 92 0
93 89 0
-92 -89 -93 0
-94 4 0
-94 -22 0
-4 22 94 0
95 93 0
95 -94 0
-93 94 -95 0
96 31 0
96 60 0
-31 -60 -96 0
97 62 0
97 96 0
-62 -96 -97 0
-98 -95 0
-98 -97 0
95 97 98 0
-99 42 0
-99 -60 0
-42 60 99 0
-100 -99 0
-100 44 0
99 -44 100 0
31 100 -101 0
-31 -100 -101 0
31 -100 101 0
-31 100 101 0
102 1 0
102 14 0
-1 -14 -102 0
-103 101 0
-103 102 0
-101 -102 103 0
-104 -98 0
-104 -103 0
98 103 104 0
105 91 0
105 104 0
-91 -104 -105 0
106 33 0
106 82 0
-33 -82 -106 0
-107 75 0
-107 -45 0
-75 45 107 0
-108 -107 0
-108 8 0
107 -8 108 0
-109 19 0
-109 18 0
-19 -18 109 0
108 109 -110 0
-108 -109 -110 0
108 -109 110 0
-108 109 110 0
51 -53 -111 0
-51 53 -111 0
51 53 111 0
-51 -53 111 0
-112 -110 0
-112 111 0
110 -111 112 0
-113 106 0
-113 112 0
-106 -112 113 0
-114 -82 0
-114 16 0
82 -16 114 0
115 19 0
115 -35 0
-19 35 -115 0
114 -115 -116 0
-114 115 -116 0
114 115 116 0
-114 -115 116 0
-117 113 0
-117 -116 0
-113 116 117 0
118 60 0
118 -81 0
-60 81 -118 0
42 41 -119 0
-42 -41 -119 0
42 -41 119 0
-42 41 119 0
-120 -118 0
-120 -119 0
118 119 120 0
19 8 -121 0
-19 -8 -121 0
19 -8 121 0
-19 8 121 0
122 121 0
122 35 0
-121 -35 -122 0
123 -79 0
123 49 0
79 -49 -123 0
-122 -123 -124 0
122 123 -124 0
-122 123 124 0
122 -123 124 0
125 89 0
125 -9 0
-89 9 -125 0
124 125 -126 0
-124 -125 -126 0
124 -125 126 0
-124 125 126 0
-127 120 0
-127 126 0
-120 -126 127 0
128 -6 0
128 16 0
6 -16 -128 0
-129 -128 0
-129 -5 0
128 5 129 0
14 -4 -130 0
-14 4 -130 0
14 4 130 0
-14 -4 130 0
131 -129 0
131 130 0
129 -130 -131 0
132 -127 0
132 -131 0
127 131 -132 0
117 132 -133 0
-117 -132 -133 0
117 -132 133 0
-117 132 133 0
-134 -105 0
-134 133 0
105 -133 134 0
89 -51 -135 0
-89 51 -135 0
89 51 135 0
-89 -51 135 0
137 136 0
137 44 0
-136 -44 -137 0
-138 135 0
-138 -137 0
-135 137 138 0
-134 138 -139 0
134 -138 -139 0
-134 -138 139 0
134 138 139 0
-70 139 -140 0
70 -139 -140 0
-70 -139 140 0
70 139 140 0
-47 140 -141 0
47 -140 -141 0
-47 -140 141 0
47 140 141 0
30 141 -142 0
-30 -141 -142 0
30 -141 142 0
-30 141 142 0
19 79 118 -12 -129 0
47 -80 89 -78 112 0
-32 -91 -40 -47 0
-105 -76 -83 92 -73 26 0
-35 73 -64 0
23 68 54 -99 -25 0
-56 -128 -41 0
122 16 142 0
8 132 -46 -110 81 -141 0
-79 45 -118 -112 42 -140 0
37 79 0
-4 106 98 128 -91 0
96 23 136 -28 0
59 137 8 0
54 -1 119 -73 113 95 0
-7 114 -117 0
-86 -68 36 0
56 48 -33 -59 0
-23 -135 51 0
-115 -95 -10 -25 0
-9 -47 14 141 -20 -91 0
18 -96 15 0
-70 81 45 6 12 0
-78 14 -57 72 -15 100 0
106 -45 0
-40 -45 100 0
23 88 -117 70 106 -74 0
136 -63 -39 -13 59 -94 0
-21 -138 -96 -108 0
-42 105 0
92 44 -77 -112 94 0
25 -134 119 -99 0
-32 14 -61 0
91 16 -27 51 34 0
-24 -18 -52 -47 0
-120 -71 -40 -66 0
-89 -78 -61 0
-89 42 -26 0
116 35 0
101 -78 0
63 108 -93 -39 0
-97 14 113 -46 0
-85 -48 68 125 0
28 -78 0
5 -1 -58 17 9 0
18 117 128 0
-130 -93 39 0
-30 -114 0
-42 -35 0
-88 128 -14 22 5 0
-138 -142 -11 0
-132 -12 -88 -94 0
-133 -34 -119 11 -55 53 0
22 7 -93 136 -60 0
120 27 92 0
64 -141 69 102 0
-71 133 0
-26 -125 -120 -8 -59 94 0
49 19 104 0
-116 64 31 -87 -41 0
-68 13 -8 -78 -128 0
86 74 -53 -76 0
54 94 105 6 0
130 77 0
106 14 27 126 -72 0
-124 -47 50 0
-123 99 115 -49 43 95 0
-139 -91 -52 -44 0
79 16 80 0
-130 87 -47 -59 38 -81 0
11 5 35 31 0
-140 -18 0
-54 -35 -26 96 0
98 69 0
-88 -138 69 -63 0
31 -30 -64 -102 -4 -109 0
64 60 2 18 79 -113 0
-106 -138 123 0
123 62 0
-88 -126 0
103 8 -139 97 79 0
-71 -33 59 0
20 86 0
142 0
